c description: Random 3-CNF over 21 variables and 89 clauses
c generator: CNFgen (0.9.2)
c copyright: (C) 2012-2022 Massimo Lauria <massimo.lauria@uniroma1.it>
c url: https://massimolauria.net/cnfgen
c command line: cnfgen --output ../CNF/21_bit_89_77.cnf randkcnf 3 21 89
c
p cnf 21 89
7 -9 -21 0
4 5 10 0
8 15 18 0
-5 -12 -14 0
2 -8 15 0
4 6 -14 0
-17 19 -20 0
-11 -18 -21 0
3 4 -21 0
-1 -9 15 0
-4 15 18 0
-9 16 19 0
1 -2 -21 0
2 -10 -17 0
-8 17 19 0
-1 -15 21 0
-5 -9 15 0
-3 6 9 0
17 19 21 0
-18 19 -20 0
7 -13 19 0
11 -19 -21 0
-2 -15 18 0
10 -14 -15 0
3 -13 -20 0
8 -19 -21 0
7 -8 19 0
-1 -6 -18 0
-3 6 -21 0
5 -19 -20 0
-15 -17 19 0
-6 17 21 0
-8 -9 21 0
1 6 -9 0
-4 13 -18 0
6 19 21 0
3 9 -21 0
6 16 -19 0
11 16 20 0
5 14 -20 0
-1 -13 -19 0
-1 -10 13 0
5 -7 -10 0
5 -8 14 0
2 14 18 0
-4 -7 8 0
7 8 9 0
-1 9 18 0
-1 -15 18 0
-2 8 -18 0
5 -9 15 0
3 -7 16 0
6 -7 19 0
6 8 -18 0
-11 16 17 0
4 -14 15 0
8 -10 -20 0
16 -17 -18 0
2 6 -21 0
-2 3 17 0
5 -11 -15 0
1 11 -16 0
3 -14 -17 0
-7 13 15 0
-3 -13 -17 0
13 15 20 0
-14 -18 -21 0
1 10 15 0
-8 10 21 0
1 2 14 0
3 5 7 0
-5 -13 -17 0
-3 -8 19 0
-5 -7 -15 0
5 7 -19 0
-8 10 -16 0
1 5 7 0
-1 -19 -20 0
-5 -7 -11 0
11 13 15 0
6 15 -17 0
9 12 -19 0
-3 -16 20 0
-7 -9 16 0
-2 -3 -10 0
-2 6 10 0
-4 -10 -11 0
4 -9 17 0
9 -17 21 0
